NAME : morphed20-5-32
COMMENT : Generated using the function morphInstances from the R-package netgen (Bossek,2015) - Number of clusters: 5 Alpha: 0.5
TYPE : TSP
DIMENSION : 20
EDGE_WEIGHT_TYPE : EUC_2D
NODE_COORD_SECTION
1 42.5414017014 55.5366766862
2 39.8815991113 74.2515479609
3 66.6790620161 29.9980523355
4 68.6097615383 12.5591116471
5 10.2403574456 44.354788708
6 95.2526963277 89.7874362984
7 60.776089713 42.9435258297
8 69.5141041054 26.6601258114
9 61.4734555255 51.4272734129
10 26.8741114591 51.6282145688
11 57.5124360441 25.9660565272
12 26.302246932 79.5121811236
13 42.4063567829 76.854439068
14 81.1418170432 84.4727075334
15 16.379783825 37.1568731607
16 80.454305287 80.860342583
17 59.8288729689 46.3707566966
18 22.6187889941 17.6019372998
19 47.0814830593 71.4078471749
20 85.1613051667 96.8496369852
EOF
